(set-logic ALL)
(declare-const a Bool)
(declare-const b Bool) 
(declare-const c Bool)
(declare-const d Bool)

(declare-const lhs Bool)
(declare-const rhs Bool)
; (assert (not (= (=> a b c) (=> (and a b) c))))
; (assert (not (= ())))
(assert (= lhs (=> a (and (=> b c) (=> (not b) d)))))
(assert (= rhs (and (=> (and a b) c) (=> (and a (not b)) d))))
(assert (not (= lhs rhs)))
(check-sat)
